ssat_solver_solve2
#level: 2
Abc_NtkNodeNum(s->pNtk): 700  , BDD limit: 10240
level 1: 15 element
Exist
existence_eliminate_scope
Abc_NtkIsBddLogic(pNtk): 0
Abc_NtkIsStrash(pNtk): 1
existence_eliminate_scope_aig
exist by BDD failed
Abc_NtkNodeNum(s->pNtk): 814943  , BDD limit: 977931
Build BDD success
level 0: 15 element
Random
c ssat solving in ABC
#var: 30
s SATISFIABLE
  > Upper bound = 3.399658e-02
  > Lower bound = 3.399658e-02
FINISHED CPU 5.30 MEM 193724 MAXMEM 193724 STALE 0 MAXMEM_RSS 147184
<time name="ALL">5410</time>
real 5.55
user 6.33
sys 2.63
